c Clique máximo encontrado = 33
p edge 387 165
e 97 1
e 97 2
e 97 3
e 97 5
e 97 7
e 97 8
e 97 9
e 97 11
e 97 13
e 97 14
e 97 15
e 97 17
e 97 22
e 97 32
e 97 41
e 97 53
e 97 65
e 97 74
e 97 86
e 97 109
e 97 116
e 97 132
e 97 137
e 97 147
e 97 166
e 97 173
e 97 179
e 97 226
e 97 239
e 97 284
e 97 319
e 97 387
e 1 2
e 1 3
e 1 5
e 1 7
e 1 8
e 1 9
e 1 11
e 1 13
e 1 14
e 1 15
e 1 17
e 1 22
e 1 32
e 1 41
e 1 53
e 1 65
e 1 74
e 1 86
e 1 109
e 1 116
e 1 132
e 1 137
e 1 147
e 1 166
e 1 173
e 1 179
e 1 226
e 1 239
e 1 284
e 1 319
e 1 387
e 2 3
e 2 5
e 2 7
e 2 8
e 2 9
e 2 11
e 2 13
e 2 14
e 2 15
e 2 17
e 2 22
e 2 32
e 2 41
e 2 53
e 2 65
e 2 74
e 2 86
e 2 109
e 2 116
e 2 132
e 2 137
e 2 147
e 2 166
e 2 173
e 2 179
e 2 226
e 2 239
e 2 284
e 2 319
e 2 387
e 3 5
e 3 7
e 3 8
e 3 9
e 3 11
e 3 13
e 3 14
e 3 15
e 3 17
e 3 22
e 3 32
e 3 41
e 3 53
e 3 65
e 3 74
e 3 86
e 3 109
e 3 116
e 3 132
e 3 137
e 3 147
e 3 166
e 3 173
e 3 179
e 3 226
e 3 239
e 3 284
e 3 319
e 3 387
e 5 7
e 5 8
e 5 9
e 5 11
e 5 13
e 5 14
e 5 15
e 5 17
e 5 22
e 5 32
e 5 41
e 5 53
e 5 65
e 5 74
e 5 86
e 5 109
e 5 116
e 5 132
e 5 137
e 5 147
e 5 166
e 5 173
e 5 179
e 5 226
e 5 239
e 5 284
e 5 319
e 5 387
e 7 8
e 7 9
e 7 11
e 7 13
e 7 14
e 7 15
e 7 17
e 7 22
e 7 32
e 7 41
e 7 53
e 7 65
e 7 74
e 7 86
e 7 109
e 7 116
e 7 132
e 7 137
e 7 147
e 7 166
e 7 173
e 7 179
e 7 226
e 7 239
e 7 284
e 7 319
e 7 387
e 8 9
e 8 11
e 8 13
e 8 14
e 8 15
e 8 17
e 8 22
e 8 32
e 8 41
e 8 53
e 8 65
e 8 74
e 8 86
e 8 109
e 8 116
e 8 132
e 8 137
e 8 147
e 8 166
e 8 173
e 8 179
e 8 226
e 8 239
e 8 284
e 8 319
e 8 387
e 9 11
e 9 13
e 9 14
e 9 15
e 9 17
e 9 22
e 9 32
e 9 41
e 9 53
e 9 65
e 9 74
e 9 86
e 9 109
e 9 116
e 9 132
e 9 137
e 9 147
e 9 166
e 9 173
e 9 179
e 9 226
e 9 239
e 9 284
e 9 319
e 9 387
e 11 13
e 11 14
e 11 15
e 11 17
e 11 22
e 11 32
e 11 41
e 11 53
e 11 65
e 11 74
e 11 86
e 11 109
e 11 116
e 11 132
e 11 137
e 11 147
e 11 166
e 11 173
e 11 179
e 11 226
e 11 239
e 11 284
e 11 319
e 11 387
e 13 14
e 13 15
e 13 17
e 13 22
e 13 32
e 13 41
e 13 53
e 13 65
e 13 74
e 13 86
e 13 109
e 13 116
e 13 132
e 13 137
e 13 147
e 13 166
e 13 173
e 13 179
e 13 226
e 13 239
e 13 284
e 13 319
e 13 387
e 14 15
e 14 17
e 14 22
e 14 32
e 14 41
e 14 53
e 14 65
e 14 74
e 14 86
e 14 109
e 14 116
e 14 132
e 14 137
e 14 147
e 14 166
e 14 173
e 14 179
e 14 226
e 14 239
e 14 284
e 14 319
e 14 387
e 15 17
e 15 22
e 15 32
e 15 41
e 15 53
e 15 65
e 15 74
e 15 86
e 15 109
e 15 116
e 15 132
e 15 137
e 15 147
e 15 166
e 15 173
e 15 179
e 15 226
e 15 239
e 15 284
e 15 319
e 15 387
e 17 22
e 17 32
e 17 41
e 17 53
e 17 65
e 17 74
e 17 86
e 17 109
e 17 116
e 17 132
e 17 137
e 17 147
e 17 166
e 17 173
e 17 179
e 17 226
e 17 239
e 17 284
e 17 319
e 17 387
e 22 32
e 22 41
e 22 53
e 22 65
e 22 74
e 22 86
e 22 109
e 22 116
e 22 132
e 22 137
e 22 147
e 22 166
e 22 173
e 22 179
e 22 226
e 22 239
e 22 284
e 22 319
e 22 387
e 32 41
e 32 53
e 32 65
e 32 74
e 32 86
e 32 109
e 32 116
e 32 132
e 32 137
e 32 147
e 32 166
e 32 173
e 32 179
e 32 226
e 32 239
e 32 284
e 32 319
e 32 387
e 41 53
e 41 65
e 41 74
e 41 86
e 41 109
e 41 116
e 41 132
e 41 137
e 41 147
e 41 166
e 41 173
e 41 179
e 41 226
e 41 239
e 41 284
e 41 319
e 41 387
e 53 65
e 53 74
e 53 86
e 53 109
e 53 116
e 53 132
e 53 137
e 53 147
e 53 166
e 53 173
e 53 179
e 53 226
e 53 239
e 53 284
e 53 319
e 53 387
e 65 74
e 65 86
e 65 109
e 65 116
e 65 132
e 65 137
e 65 147
e 65 166
e 65 173
e 65 179
e 65 226
e 65 239
e 65 284
e 65 319
e 65 387
e 74 86
e 74 109
e 74 116
e 74 132
e 74 137
e 74 147
e 74 166
e 74 173
e 74 179
e 74 226
e 74 239
e 74 284
e 74 319
e 74 387
e 86 109
e 86 116
e 86 132
e 86 137
e 86 147
e 86 166
e 86 173
e 86 179
e 86 226
e 86 239
e 86 284
e 86 319
e 86 387
e 109 116
e 109 132
e 109 137
e 109 147
e 109 166
e 109 173
e 109 179
e 109 226
e 109 239
e 109 284
e 109 319
e 109 387
e 116 132
e 116 137
e 116 147
e 116 166
e 116 173
e 116 179
e 116 226
e 116 239
e 116 284
e 116 319
e 116 387
e 132 137
e 132 147
e 132 166
e 132 173
e 132 179
e 132 226
e 132 239
e 132 284
e 132 319
e 132 387
e 137 147
e 137 166
e 137 173
e 137 179
e 137 226
e 137 239
e 137 284
e 137 319
e 137 387
e 147 166
e 147 173
e 147 179
e 147 226
e 147 239
e 147 284
e 147 319
e 147 387
e 166 173
e 166 179
e 166 226
e 166 239
e 166 284
e 166 319
e 166 387
e 173 179
e 173 226
e 173 239
e 173 284
e 173 319
e 173 387
e 179 226
e 179 239
e 179 284
e 179 319
e 179 387
e 226 239
e 226 284
e 226 319
e 226 387
e 239 284
e 239 319
e 239 387
e 284 319
e 284 387
e 319 387
